c SAT problem
p wcnf 48 180
1 60 -3150 0
1 75 -3150 0
1 -75 3120 0
1 75 3165 0
1 -75 3135 0
1 90 -3075 0
1 90 -105 0
1 -90 -3090 0
1 90 3060 0
1 -90 3135 0
1 105 3105 0
1 105 -3090 0
1 -105 -90 0
1 3120 -196 0
1 3120 135 0
1 -3120 3121 0
1 3120 181 0
1 -3120 3135 0
1 -3135 196 0
1 -3135 3120 0
1 3135 -181 0
1 3135 -120 0
1 3150 -166 0
1 -3150 136 0
1 3150 -3151 0
1 3150 -181 0
1 -3150 151 0
1 3150 -60 0
1 -3150 3165 0
1 -3165 -136 0
1 -3165 105 0
1 -3165 -121 0
1 3165 -90 0
1 135 3075 0
1 -135 3090 0
1 135 -120 0
1 -150 165 0
1 150 -3045 0
1 150 -3090 0
1 -150 3060 0
1 -150 3000 0
1 165 3105 0
1 -165 3045 0
1 165 3015 0
1 165 -3090 0
1 -165 3030 0
1 -165 -3000 0
1 3060 -225 0
1 -3060 240 0
1 -3060 -180 0
1 -3060 150 0
1 3060 120 0
1 3060 90 0
1 3060 -255 0
1 3075 -3060 0
1 -3090 -226 0
1 -3090 -165 0
1 3090 -135 0
1 -3090 -211 0
1 -3090 -90 0
1 -3105 -240 0
1 -3105 -90 0
1 180 -3045 0
1 195 3045 0
1 -195 3060 0
1 210 -225 0
1 -210 3060 0
1 210 -3030 0
1 225 -226 0
1 225 210 0
1 225 -3060 0
1 225 3030 0
1 3000 -225 0
1 -3000 -195 0
1 3000 -165 0
1 3000 -210 0
1 3000 150 0
1 -3015 180 0
1 3015 150 0
1 -3030 -225 0
1 -3030 -195 0
1 3030 3045 0
1 3030 240 0
1 3030 -285 0
1 -3045 225 0
1 -3045 -195 0
1 3045 165 0
1 3045 -270 0
1 3045 240 0
1 3045 150 0
1 3045 285 0
1 -3045 255 0
1 121 -136 0
1 121 -3165 0
1 -136 135 0
1 -136 -3150 0
1 136 121 0
1 136 3165 0
1 151 3180 0
1 -151 -3285 0
1 166 -3180 0
1 166 -3150 0
1 166 3285 0
1 -166 -151 0
1 166 3225 0
1 -166 3195 0
1 -3240 211 0
1 3240 181 0
1 3255 -226 0
1 -3255 -196 0
1 3255 -166 0
1 3255 136 0
1 -3255 211 0
1 3255 151 0
1 3270 -166 0
1 -3270 -151 0
1 -3270 -121 0
1 -3285 -121 0
1 181 196 0
1 -181 3150 0
1 -181 -3120 0
1 181 180 0
1 -181 -3255 0
1 -196 3240 0
1 196 -181 0
1 196 -3225 0
1 196 -3165 0
1 -211 3136 0
1 -211 -3210 0
1 -211 -3151 0
1 211 -210 0
1 -211 -3255 0
1 -211 -3195 0
1 -226 -3105 0
1 -226 -3151 0
1 226 -3121 0
1 226 -3255 0
1 226 -3195 0
1 3180 211 0
1 3195 -226 0
1 3195 166 0
1 -3195 240 0
1 3195 -151 0
1 3210 196 0
1 3210 -166 0
1 -3210 -211 0
1 3210 -151 0
1 3225 3210 0
1 -3225 211 0
1 240 3136 0
1 240 -3090 0
1 -240 3121 0
1 -240 3060 0
1 255 3136 0
1 255 3180 0
1 -255 3151 0
1 255 3195 0
1 -255 3166 0
1 270 3136 0
1 270 3045 0
1 270 3180 0
1 -270 3151 0
1 -270 3030 0
1 270 -3166 0
1 -285 3136 0
1 285 -270 0
1 285 3121 0
1 -285 3166 0
1 3121 270 0
1 -3121 -240 0
1 3136 226 0
1 -3136 270 0
1 3136 -211 0
1 3136 3135 0
1 3136 -285 0
1 3151 270 0
1 3151 -240 0
1 3151 -3166 0
1 -3166 -270 0
1 3166 3151 0
